c preprocessed version of munin4-wpp, 38 vertices, 109 edges
p td 38 109
0 1
29 0
2 1
8 1
29 1
2 3
2 13
2 9
2 15
2 21
2 22
2 7
2 30
2 8
20 2
24 2
33 2
3 4
5 3
8 3
5 4
6 5
12 5
14 5
7 5
7 6
8 7
8 9
8 13
8 15
8 21
8 22
8 23
8 30
20 8
24 8
33 8
9 10
14 9
11 10
14 10
11 12
13 11
11 14
13 12
14 12
16 15
21 15
15 17
16 17
18 17
25 17
19 18
29 18
25 18
28 18
20 19
27 19
25 19
28 19
20 21
27 20
21 22
21 23
24 21
24 25
24 26
26 25
28 29
28 30
28 31
32 28
33 28
30 31
32 33
34 37
34 35
34 4
34 6
34 11
34 10
34 36
35 37
35 0
35 31
35 16
35 22
35 23
35 36
35 27
35 26
35 32
36 37
36 16
36 22
36 23
36 27
36 26
37 0
37 4
37 6
37 11
37 10
37 31
37 16
37 22
37 27
37 26
37 32
